RT is False
Default write of storage_offers_DA.csv just to have a file (but constraint should be inactive)
Reading model...
...model read.
creating competitive generators file...
...competitive generators recorded.
Loading data...
.. day-ahead data with real-time VRE data read.
Compiling instance...
...instance created.
Creating Offer Mitigation (model will solve as dispatch if TRUE)...
Solving...

Welcome to IBM(R) ILOG(R) CPLEX(R) Interactive Optimizer 12.9.0.0
  with Simplex, Mixed Integer & Barrier Optimizers
5725-A06 5725-A29 5724-Y48 5724-Y49 5724-Y54 5724-Y55 5655-Y21
Copyright IBM Corp. 1988, 2019.  All Rights Reserved.

Type 'help' for a list of available commands.
Type 'help' followed by a command name for more
information on commands.

CPLEX> Logfile 'cplex.log' closed.
Logfile 'C:\Users\llavin\Desktop\test919\logs\tmp1kou9x2g.cplex.log' open.
CPLEX> New value for parallel optimization mode: -1
CPLEX> New value for mixed integer optimality gap tolerance: 0.01
CPLEX> New value for integrality tolerance: 1e-09
CPLEX> New value for feasibility tolerance: 0.01
CPLEX> New value for deterministic time limit in ticks: 75000
CPLEX> Problem 'C:\Users\llavin\Desktop\test919\logs\tmpbg_spg0u.pyomo.lp' read.
Read time = 0.06 sec. (3.04 ticks)
CPLEX> Problem name         : C:\Users\llavin\Desktop\test919\logs\tmpbg_spg0u.pyomo.lp
Objective sense      : Minimize
Variables            :   26081  [Nneg: 1,  Box: 21616,  Free: 4464]
Objective nonzeros   :    2496
Linear constraints   :   27515  [Less: 14006,  Greater: 4416,  Equal: 9093]
  Nonzeros           :   89267
  RHS nonzeros       :   12271

Variables            : Min LB: -5000.000        Max UB: 1000000.       
Objective nonzeros   : Min   : 15.73158         Max   : 124.0997       
Linear constraints   :
  Nonzeros           : Min   : 0.8500000        Max   : 3000.000       
  RHS nonzeros       : Min   : 0.4000000        Max   : 5000.000       
CPLEX> CPXPARAM_Parallel                                -1
CPXPARAM_Simplex_Tolerances_Feasibility          0.01
CPXPARAM_DetTimeLimit                            75000
CPXPARAM_MIP_Tolerances_MIPGap                   0.01
CPXPARAM_MIP_Tolerances_Integrality              1.0000000000000001e-09
Parallel mode: opportunistic, using up to 32 threads for concurrent optimization.
Tried aggregator 1 time.
LP Presolve eliminated 21353 rows and 15463 columns.
Aggregator did 770 substitutions.
Reduced LP has 5392 rows, 9848 columns, and 31812 nonzeros.
Presolve time = 0.06 sec. (30.44 ticks)
Symmetry aggregator did 5563 additional substitutions.

Iteration log . . .
Iteration:     1   Dual objective     =             0.000000
Perturbation started.
Iteration:   101   Dual objective     =             0.000000
Iteration:   331   Dual objective     =             1.128310
Iteration:   582   Dual objective     =             1.659323
Iteration:   840   Dual objective     =             1.796133
Iteration:  1040   Dual objective     =             1.910229
Iteration:  1304   Dual objective     =             1.958031
Iteration:  1551   Dual objective     =             1.987131
Iteration:  1776   Dual objective     =             2.008390
Iteration:  1966   Dual objective     =         79174.561922
Iteration:  2151   Dual objective     =        127938.293377
Iteration:  2358   Dual objective     =        135327.662957
Iteration:  2584   Dual objective     =        140409.206296
Iteration:  3011   Dual objective     =        143095.454289
Removing perturbation.
Dual superbasis not built.
Using devex.

Primal simplex solved model.


Primal simplex - Optimal:  Objective =  1.4309436530e+05
Solution time =    0.17 sec.  Iterations = 1641 (1084)
Deterministic time = 81.26 ticks  (472.44 ticks/sec)

CPLEX> Solution written to file 'C:\Users\llavin\Desktop\test919\logs\tmp40jc7b03.cplex.sol'.
CPLEX> Exporting results... 
...storage offer mitigation file created
Converting model to MPEC...
...converted
NOTE: initial MIP solve with only storage competitive to get feasible solution
Solving...

Welcome to IBM(R) ILOG(R) CPLEX(R) Interactive Optimizer 12.9.0.0
  with Simplex, Mixed Integer & Barrier Optimizers
5725-A06 5725-A29 5724-Y48 5724-Y49 5724-Y54 5724-Y55 5655-Y21
Copyright IBM Corp. 1988, 2019.  All Rights Reserved.

Type 'help' for a list of available commands.
Type 'help' followed by a command name for more
information on commands.

CPLEX> Logfile 'cplex.log' closed.
Logfile 'C:\Users\llavin\Desktop\test919\logs\tmpp3de_lcx.cplex.log' open.
CPLEX> New value for parallel optimization mode: -1
CPLEX> New value for mixed integer optimality gap tolerance: 0.01
CPLEX> New value for integrality tolerance: 1e-09
CPLEX> New value for feasibility tolerance: 0.01
CPLEX> New value for deterministic time limit in ticks: 75000
CPLEX> Problem 'C:\Users\llavin\Desktop\test919\logs\tmp9uw6cgwd.pyomo.lp' read.
Read time = 0.23 sec. (14.78 ticks)
CPLEX> Problem name         : C:\Users\llavin\Desktop\test919\logs\tmp9uw6cgwd.pyomo.lp
Objective sense      : Maximize
Variables            :   53805  [Nneg: 1,  Box: 22000,  Free: 4464,
                                 Binary: 27340]
Objective nonzeros   :    8980
Linear constraints   :  123205  [Less: 41346,  Greater: 59096,  Equal: 22763]
  Nonzeros           :  291801
  RHS nonzeros       :   67491

Variables            : Min LB: -5000.000        Max UB: 1000000.       
Objective nonzeros   : Min   : 0.4000000        Max   : 722.0000       
Linear constraints   :
  Nonzeros           : Min   : 0.4000000        Max   : 1000000.       
  RHS nonzeros       : Min   : 0.4000000        Max   : 1000000.       
CPLEX> CPXPARAM_Parallel                                -1
CPXPARAM_Simplex_Tolerances_Feasibility          0.01
CPXPARAM_DetTimeLimit                            75000
CPXPARAM_MIP_Tolerances_MIPGap                   0.01
CPXPARAM_MIP_Tolerances_Integrality              1.0000000000000001e-09
Tried aggregator 3 times.
MIP Presolve eliminated 88636 rows and 18936 columns.
MIP Presolve added 3405 rows and 0 columns.
MIP Presolve modified 24863 coefficients.
Aggregator did 13023 substitutions.
Reduced MIP has 24951 rows, 21290 columns, and 71173 nonzeros.
Reduced MIP has 8409 binaries, 0 generals, 0 SOSs, and 0 indicators.
Presolve time = 0.30 sec. (173.93 ticks)
Probing fixed 405 vars, tightened 2807 bounds.
Probing time = 1.19 sec. (880.68 ticks)
Tried aggregator 2 times.
MIP Presolve eliminated 913 rows and 813 columns.
MIP Presolve modified 2192 coefficients.
Aggregator did 35 substitutions.
Reduced MIP has 24003 rows, 20442 columns, and 68419 nonzeros.
Reduced MIP has 8003 binaries, 0 generals, 0 SOSs, and 0 indicators.
Presolve time = 0.11 sec. (69.86 ticks)
Probing fixed 4 vars, tightened 15 bounds.
Probing time = 0.19 sec. (117.71 ticks)
Clique table members: 8295.
MIP emphasis: balance optimality and feasibility.
MIP search method: dynamic search.
Parallel mode: opportunistic, using up to 32 threads.
Root relaxation solution time = 0.39 sec. (277.88 ticks)

        Nodes                                         Cuts/
   Node  Left     Objective  IInf  Best Integer    Best Bound    ItCnt     Gap

      0     0     7849.1308  1673                   7849.1308     6135         
      0     0     7849.1308    14                    Cuts: 13     6142         
      0     0     7849.1308    13                Flowcuts: 15     6145         
      0     0     7849.1029    14                 Flowcuts: 6     6148         
      0     7    infeasible                           Cuts: 2     6687         
Elapsed time = 8.73 sec. (5326.85 ticks, tree = 0.02 MB, solutions = 0)
    530    28   -15050.2059     4                   7819.4008     9880         
   1050   242    -5219.0650     2                   7819.4008    35836         
   1575   430   -10508.8322     7                   7819.4008    47498         
   2055   641       21.3368     6                   7819.4008    61708         
*  2107+  437                         6568.2064     7819.4008            19.05%
   2502   346     7818.9159     1     6568.2064     7819.4008    86474   19.05%
   2901   224     6883.2592     2     6568.2064     7819.4008    91632   19.05%
   3332   585     7570.2845     1     6568.2064     7819.4008    98410   19.05%
   3854   669     7805.3385     2     6568.2064     7819.4008    98898   19.05%
   5818   872     7817.1896     1     7738.4578     7819.4008   104592    1.05%
Elapsed time = 24.55 sec. (8222.49 ticks, tree = 8.47 MB, solutions = 2)
   7980  1932     7782.5284     1     7738.4578     7819.2650   110371    1.04%
*  7991  1765      integral     0     7809.5256     7819.2650   109530    0.12%

Cover cuts applied:  7
Implied bound cuts applied:  14
Flow cuts applied:  22
Gomory fractional cuts applied:  5

Root node processing (before b&c):
  Real time             =    7.73 sec. (5319.46 ticks)
Parallel b&c, 32 threads:
  Real time             =   19.64 sec. (3999.15 ticks)
  Sync time (average)   =    1.27 sec.
  Wait time (average)   =    0.00 sec.
                          ------------
Total (root+branch&cut) =   27.38 sec. (9318.61 ticks)

Solution pool: 3 solutions saved.

MIP - Integer optimal, tolerance (0.01/1e-06):  Objective =  7.8095256210e+03
Current MIP best bound =  7.8192649830e+03 (gap = 9.73936, 0.12%)
Solution time =   27.42 sec.  Iterations = 113188  Nodes = 8032 (869)
Deterministic time = 9318.76 ticks  (339.83 ticks/sec)

CPLEX> Incumbent solution written to file 'C:\Users\llavin\Desktop\test919\logs\tmpqpbeflzc.cplex.sol'.
CPLEX> NOTE: no warmstart specified for MIP iteration, default behavior is true
NOTE: resolving with all competitive generators using storage-only solution to warmstart
Solving...

Welcome to IBM(R) ILOG(R) CPLEX(R) Interactive Optimizer 12.9.0.0
  with Simplex, Mixed Integer & Barrier Optimizers
5725-A06 5725-A29 5724-Y48 5724-Y49 5724-Y54 5724-Y55 5655-Y21
Copyright IBM Corp. 1988, 2019.  All Rights Reserved.

Type 'help' for a list of available commands.
Type 'help' followed by a command name for more
information on commands.

CPLEX> Logfile 'cplex.log' closed.
Logfile 'C:\Users\llavin\Desktop\test919\logs\tmpdv97l85o.cplex.log' open.
CPLEX> New value for parallel optimization mode: -1
CPLEX> New value for mixed integer optimality gap tolerance: 0.01
CPLEX> New value for integrality tolerance: 1e-09
CPLEX> New value for feasibility tolerance: 0.01
CPLEX> New value for deterministic time limit in ticks: 75000
CPLEX> Problem 'C:\Users\llavin\Desktop\test919\logs\tmpnj30x2b5.pyomo.lp' read.
Read time = 0.25 sec. (14.81 ticks)
CPLEX> MIP start file 'C:\Users\llavin\Desktop\test919\logs\tmpdzujkxr8.cplex.mst' read.
CPLEX> Problem name         : C:\Users\llavin\Desktop\test919\logs\tmpnj30x2b5.pyomo.lp
Objective sense      : Maximize
Variables            :   54525  [Nneg: 1,  Box: 22720,  Free: 4464,
                                 Binary: 27340]
Objective nonzeros   :    9676
Linear constraints   :  123205  [Less: 41346,  Greater: 59096,  Equal: 22763]
  Nonzeros           :  291801
  RHS nonzeros       :   67491

Variables            : Min LB: -5000.000        Max UB: 1000000.       
Objective nonzeros   : Min   : 0.4000000        Max   : 722.0000       
Linear constraints   :
  Nonzeros           : Min   : 0.4000000        Max   : 1000000.       
  RHS nonzeros       : Min   : 0.4000000        Max   : 1000000.       
CPLEX> CPXPARAM_Parallel                                -1
CPXPARAM_Simplex_Tolerances_Feasibility          0.01
CPXPARAM_DetTimeLimit                            75000
CPXPARAM_MIP_Tolerances_MIPGap                   0.01
CPXPARAM_MIP_Tolerances_Integrality              1.0000000000000001e-09
Warning:  No solution found from 1 MIP starts.
Retaining values of one MIP start for possible repair.
Tried aggregator 3 times.
MIP Presolve eliminated 88636 rows and 19656 columns.
MIP Presolve added 3405 rows and 0 columns.
MIP Presolve modified 24863 coefficients.
Aggregator did 13023 substitutions.
Reduced MIP has 24951 rows, 21290 columns, and 71173 nonzeros.
Reduced MIP has 8409 binaries, 0 generals, 0 SOSs, and 0 indicators.
Presolve time = 0.30 sec. (174.29 ticks)
Probing fixed 405 vars, tightened 2807 bounds.
Probing time = 1.19 sec. (880.68 ticks)
Tried aggregator 2 times.
MIP Presolve eliminated 913 rows and 813 columns.
MIP Presolve modified 2192 coefficients.
Aggregator did 35 substitutions.
Reduced MIP has 24003 rows, 20442 columns, and 68419 nonzeros.
Reduced MIP has 8003 binaries, 0 generals, 0 SOSs, and 0 indicators.
Presolve time = 0.11 sec. (69.87 ticks)
Probing fixed 4 vars, tightened 15 bounds.
Probing time = 0.19 sec. (117.71 ticks)
Clique table members: 8295.
MIP emphasis: balance optimality and feasibility.
MIP search method: dynamic search.
Parallel mode: opportunistic, using up to 32 threads.
Root relaxation solution time = 0.44 sec. (306.10 ticks)

        Nodes                                         Cuts/
   Node  Left     Objective  IInf  Best Integer    Best Bound    ItCnt     Gap

      0     0    73046.6311  1799                  73046.6311     6491         
      0     0    72305.5449   672                   Cuts: 695     6808         
      0     0    72077.3046   572                   Cuts: 358     6956         
      0     0    72030.9077   527                   Cuts: 234     7059         
      0     0    72030.9077   498                   Cuts: 110     7113         
      0     0    72030.9077   486                   Cuts: 103     7162         
      0     0    72030.9077   463                    Cuts: 67     7187         
      0     0    71647.1175   457                    Cuts: 64     7222         
      0     0    70421.1843   445                    Cuts: 96     7300         
      0     0    70407.3334   438                    Cuts: 67     7327         
      0     0    70399.5476   435                    Cuts: 43     7339         
      0     0    70291.3620   430                    Cuts: 46     7361         
      0     0    70041.2147   426                    Cuts: 42     7376         
      0     0    70041.2147   426                    Cuts: 27     7376         
Repair heuristic found nothing.
      0     2    70041.2147   426                    Cuts: 29     7376         
Elapsed time = 12.42 sec. (6821.97 ticks, tree = 0.02 MB, solutions = 0)
    374   303    61429.0022   380                  63598.1391    12557         
    911   396    48195.1828   373                  63598.1391    13279         
   1286   703    54299.3636   352                  63598.1391    15617         
   2104  1339    infeasible                        63598.1391    21216         
   2708  1888    48772.3214   374                  63598.1391    25726         
   3368  2262    44173.9708   281                  63598.1391    28675         
   4378  3024    54020.3586   258                  63598.1391    31765         
   5371  2731    40718.5012   278                  63598.1391    30947         
   6464  4175    54191.4387   254                  63598.1391    33406         
* 11021  8993      integral     0    51501.0836    63598.1391    34251   23.49%
  11202  9254    43039.6745   192    53765.3121    63598.1391    34467   18.29%
Elapsed time = 30.02 sec. (9924.24 ticks, tree = 79.85 MB, solutions = 6)
  13881  1517    54873.7963   377    54439.5580    63579.7121    41661   16.79%
  14119  2658        cutoff          54439.5580    62183.2423    55632   14.22%
  14819   495    55483.2588    83    54439.5580    62183.2423    61777   14.22%
  16761   911    57108.7519    81    54439.5580    62183.2423    64805   14.22%
  19697  3024    54758.4387    76    54439.5580    62183.2423    80825   14.22%
* 20704  3659      integral     0    56694.3050    62183.2423    85004    9.68%
  21433  3733    57640.2732    78    56694.3050    62183.2423   103711    9.68%
  22062  3840    59043.8511   120    57699.9808    62183.2423   104781    7.77%
  24424  2121    57890.5490    97    57699.9808    62183.2423   111246    7.77%
  27289  2853    58510.0196    83    57699.9808    59242.7511   118430    2.67%
Elapsed time = 76.39 sec. (23106.20 ticks, tree = 23.77 MB, solutions = 11)
  30147  4340    57806.4966    85    57699.9808    59119.3183   134137    2.46%
  33095  8320    58785.4995    87    57699.9808    58997.9181   166361    2.25%
  35801  7934    57960.9940    73    57699.9808    58933.9855   163258    2.14%
  36778 11045    58596.8316    77    57699.9808    58933.9855   184842    2.14%
  37263 11012    57771.0668    66    57699.9808    58873.7484   184546    2.03%
  39225 11194    58453.2655    81    57699.9808    58873.7484   185560    2.03%
  42098 12207        cutoff          57699.9808    58792.7021   191067    1.89%
  45081 12978        cutoff          57699.9808    58792.7021   194919    1.89%
  48068 14328    58791.4059    76    57989.7399    58792.7021   201846    1.38%
  51000 14518    58093.6703    76    57989.7399    58792.7021   230183    1.38%
Elapsed time = 118.89 sec. (32649.83 ticks, tree = 154.01 MB, solutions = 12)
  53983 13398    58325.1831    25    57989.7399    58792.7021   223522    1.38%
  56900 15845    58093.6703    73    57989.7399    58792.7021   237339    1.38%
  59572 17094    58325.1831    30    57989.7399    58792.7021   242656    1.38%
  61940 19243    58100.9082    84    57989.7399    58792.7021   251938    1.38%
  64134 22984    58255.2620    45    57989.7399    58792.7021   268534    1.38%
  66503 23543    58325.1831    62    57989.7399    58792.7021   270941    1.38%
  69166 22345    58246.6103    25    57989.7399    58792.7021   265785    1.38%
  70880 24336    58784.2033    74    57989.7399    58792.7021   274217    1.38%
  72042 25668    58294.8001    61    57989.7399    58792.7021   280440    1.38%
  72840 30522    58325.1831    29    57989.7399    58792.7021   302585    1.38%
Elapsed time = 156.83 sec. (42192.45 ticks, tree = 354.23 MB, solutions = 12)
  74419 30922    58089.2423    84    57989.7399    58792.7021   304406    1.38%
  77037 32428    58064.0026    83    57989.7399    58791.4412   311038    1.38%
  80038 30942    58255.2620    48    57989.7399    58791.4412   304568    1.38%
  82934 31677    58784.2033    75    57989.7399    58791.4412   307582    1.38%
  85632 33973    58784.2033    72    57989.7399    58791.4059   318306    1.38%
  88084 38567        cutoff          57989.7399    58791.4059   338710    1.38%
* 88354 38274      integral     0    58324.8257    58791.4059   337338    0.80%
  90287 37537        cutoff          58324.8257    58791.4059   334002    0.80%
* 91031 39008      integral     0    58324.8257    58791.4059   340997    0.80%

GUB cover cuts applied:  2
Clique cuts applied:  9
Cover cuts applied:  5
Implied bound cuts applied:  31
Flow cuts applied:  363
Mixed integer rounding cuts applied:  79
Gomory fractional cuts applied:  68

Root node processing (before b&c):
  Real time             =   10.09 sec. (6754.06 ticks)
Parallel b&c, 32 threads:
  Real time             =  176.06 sec. (43375.54 ticks)
  Sync time (average)   =    1.92 sec.
  Wait time (average)   =    0.26 sec.
                          ------------
Total (root+branch&cut) =  186.16 sec. (50129.60 ticks)

Solution pool: 14 solutions saved.

MIP - Integer optimal, tolerance (0.01/1e-06):  Objective =  5.8324825668e+04
Current MIP best bound =  5.8791405936e+04 (gap = 466.58, 0.80%)
Solution time =  186.19 sec.  Iterations = 366914  Nodes = 91508 (23367)
Deterministic time = 50129.76 ticks  (269.24 ticks/sec)

CPLEX> Incumbent solution written to file 'C:\Users\llavin\Desktop\test919\logs\tmps1ovvpvy.cplex.sol'.
CPLEX> Exporting results... 
